File : Instances/p68
Use 137 s

22086

0 1 1 0 1 0 0 1 0 0 1 0 1 0 0 1 0 0 0 1 1 0 0 1 1 1 0 1 1 0 
7 19 2 27 2 12 15 27 27 28 4 28 10 1 28 7 1 20 27 27 27 24 23 24 10 27 27 19 4 2 19 19 4 24 27 12 20 20 24 15 7 20 12 4 20 19 20 2 19 10 24 24 24 15 20 12 25 20 27 7 4 2 7 20 10 25 23 19 19 25 7 12 19 20 23 23 20 23 20 24 10 2 20 25 4 10 19 2 27 7 28 19 25 25 2 1 28 12 2 28 28 15 25 7 4 24 4 24 27 1 19 4 27 12 12 20 28 7 28 20 20 25 28 19 4 15 2 12 19 10 28 24 25 20 23 20 1 1 28 10 12 27 12 25 25 2 24 15 27 25 24 10 23 24 20 28 2 15 20 1 1 27 10 24 23 27 23 4 1 15 1 20 19 10 4 2 24 10 4 10 2 15 2 19 12 20 28 23 27 2 2 2 19 4 7 12 7 15 10 19 
